SDVRP instances/custom_instances/p02_23_split0.vrp
NAME:p02_23_split
BEST_KNOWN: 0
COMMENT: 0
DIMENSION: 402
CAPACITY: 140
EDGE_WEIGHT_FORMAT: FUNCTION
EDGE_WEIGHT_TYPE: EXACT_2D
NODE_COORD_SECTION
1 0.00000 0.00000
2 8 -9
3 8 -9
4 8 -9
5 8 -9
6 -28 -22
7 -28 -22
8 -28 -22
9 -28 -22
10 -28 -22
11 -28 -22
12 -11 45
13 -11 45
14 -11 45
15 -11 45
16 -11 45
17 -11 45
18 -4 -38
19 -4 -38
20 -4 -38
21 -4 -38
22 -4 -38
23 -4 -38
24 -4 -38
25 -28 37
26 -28 37
27 -28 37
28 -28 37
29 -28 37
30 -29 -42
31 -29 -42
32 -29 -42
33 -29 -42
34 -29 -42
35 -29 -42
36 -29 -42
37 43 -6
38 43 -6
39 43 -6
40 43 -6
41 29 24
42 29 24
43 29 24
44 29 24
45 -40 26
46 -40 26
47 -40 26
48 0 1
49 0 1
50 0 1
51 0 1
52 0 1
53 0 1
54 0 1
55 0 1
56 29 20
57 29 20
58 29 20
59 29 20
60 29 20
61 29 20
62 29 20
63 40 -46
64 40 -46
65 40 -46
66 40 -46
67 40 -46
68 40 -46
69 40 -46
70 40 -46
71 40 -46
72 -44 -32
73 -44 -32
74 -44 -32
75 -44 -32
76 -44 -32
77 -44 -32
78 -44 -32
79 -44 -32
80 -37 -32
81 -37 -32
82 -7 -2
83 -7 -2
84 -3 -32
85 -3 -32
86 -3 -32
87 -3 -32
88 -3 -32
89 -3 -32
90 49 31
91 49 31
92 49 31
93 49 31
94 49 31
95 49 31
96 -4 -15
97 -4 -15
98 -4 -15
99 -4 -15
100 -4 -15
101 -4 -15
102 8 49
103 8 49
104 -3 -33
105 -3 -33
106 -3 -33
107 -3 -33
108 -3 -33
109 -3 -33
110 -3 -33
111 -10 -42
112 -10 -42
113 -10 -42
114 -10 -42
115 -10 -42
116 -10 -42
117 29 50
118 29 50
119 29 50
120 29 50
121 29 50
122 29 50
123 29 50
124 29 50
125 29 50
126 21 21
127 21 21
128 21 21
129 -26 -35
130 -26 -35
131 -26 -35
132 -26 -35
133 -26 -35
134 -26 -35
135 -9 40
136 -9 40
137 -9 40
138 -9 40
139 -9 40
140 -9 40
141 -9 40
142 -9 40
143 -16 18
144 -16 18
145 -16 18
146 -16 18
147 -16 18
148 -16 18
149 -16 18
150 -16 18
151 30 -14
152 30 -14
153 30 -14
154 30 -14
155 22 14
156 22 14
157 22 14
158 22 14
159 22 14
160 27 -43
161 27 -43
162 27 -43
163 27 -43
164 27 -43
165 27 -43
166 27 -43
167 27 -43
168 27 -43
169 -28 12
170 -28 12
171 -28 12
172 -28 12
173 -28 12
174 37 33
175 37 33
176 37 33
177 37 33
178 -15 15
179 -15 15
180 -15 15
181 -15 15
182 13 -49
183 13 -49
184 13 -49
185 36 42
186 36 42
187 36 42
188 36 42
189 36 42
190 36 42
191 -24 -16
192 -24 -16
193 -24 -16
194 -24 -16
195 -34 46
196 -21 -28
197 -21 -28
198 -21 -28
199 -21 -28
200 -21 -28
201 -21 -28
202 -21 -28
203 -21 -28
204 41 -6
205 41 -6
206 41 -6
207 41 -6
208 41 -6
209 41 -6
210 -31 20
211 -31 20
212 -31 20
213 -31 20
214 -28 -38
215 -28 -38
216 7 11
217 7 11
218 7 11
219 7 11
220 7 11
221 7 11
222 7 11
223 7 11
224 -15 -32
225 -15 -32
226 -15 -32
227 -43 -40
228 -43 -40
229 -43 -40
230 -43 -40
231 -43 -40
232 -43 -40
233 -43 -40
234 -32 3
235 -32 3
236 20 -6
237 20 -6
238 20 -6
239 20 -6
240 -48 25
241 -48 25
242 -45 -47
243 -45 -47
244 -45 -47
245 -45 -47
246 -45 -47
247 -36 7
248 -36 7
249 -36 7
250 -36 7
251 -49 2
252 -49 2
253 -49 2
254 -41 28
255 -41 28
256 -38 14
257 -38 14
258 -38 14
259 -38 14
260 -38 14
261 -38 14
262 -38 14
263 -38 14
264 3 -17
265 3 -17
266 3 -17
267 -29 -40
268 -29 -40
269 -29 -40
270 -29 -40
271 -29 -40
272 -29 -40
273 8 -27
274 8 -27
275 8 -27
276 8 -27
277 8 -27
278 8 -27
279 8 -27
280 -9 -10
281 -9 -10
282 -9 -10
283 -9 -10
284 -9 -10
285 -9 -10
286 -9 -10
287 -9 -10
288 10 -8
289 10 -8
290 10 -8
291 10 -8
292 10 -8
293 10 -8
294 10 -8
295 -46 4
296 -46 4
297 -46 4
298 -46 4
299 -46 4
300 -46 4
301 -46 4
302 49 -47
303 49 -47
304 49 -47
305 49 -47
306 49 -47
307 49 -47
308 49 -47
309 49 -47
310 46 5
311 -15 -47
312 -15 -47
313 -15 -47
314 -15 -47
315 -15 -47
316 30 -10
317 30 -10
318 30 -10
319 30 -10
320 30 -10
321 30 -10
322 -27 -9
323 -27 -9
324 -27 -9
325 -27 -9
326 -27 -9
327 -27 -9
328 -27 -9
329 -27 -9
330 41 14
331 41 14
332 41 14
333 41 14
334 41 14
335 41 14
336 41 14
337 -17 43
338 -17 43
339 4 -14
340 4 -14
341 4 -14
342 4 -14
343 4 -14
344 4 -14
345 4 -14
346 42 34
347 42 34
348 42 34
349 42 34
350 42 34
351 14 -23
352 14 -23
353 47 -43
354 47 -43
355 37 38
356 37 38
357 37 38
358 37 38
359 37 38
360 37 38
361 37 38
362 34 37
363 34 37
364 34 37
365 34 37
366 34 37
367 34 37
368 34 37
369 31 -23
370 31 -23
371 31 -23
372 -20 41
373 -20 41
374 -20 41
375 -20 41
376 -20 41
377 -20 41
378 -20 41
379 -20 41
380 -20 41
381 44 19
382 44 19
383 44 19
384 44 19
385 44 19
386 44 19
387 44 19
388 44 19
389 9 -23
390 9 -23
391 9 -23
392 9 -23
393 9 -23
394 9 -23
395 9 -23
396 0 43
397 0 43
398 0 43
399 0 43
400 0 43
401 0 43
402 0 43
DEMAND_SECTION
1 0
2 28
3 14
4 1
5 1
6 28
7 28
8 1
9 1
10 1
11 1
12 14
13 7
14 1
15 1
16 1
17 1
18 28
19 7
20 1
21 1
22 1
23 1
24 1
25 28
26 14
27 1
28 1
29 1
30 28
31 1
32 1
33 1
34 1
35 1
36 1
37 28
38 14
39 7
40 1
41 28
42 7
43 1
44 1
45 28
46 14
47 1
48 28
49 14
50 7
51 1
52 1
53 1
54 1
55 1
56 28
57 14
58 7
59 1
60 1
61 1
62 1
63 28
64 14
65 7
66 1
67 1
68 1
69 1
70 1
71 1
72 28
73 28
74 1
75 1
76 1
77 1
78 1
79 1
80 28
81 28
82 28
83 28
84 28
85 14
86 1
87 1
88 1
89 1
90 28
91 28
92 1
93 1
94 1
95 1
96 28
97 28
98 7
99 1
100 1
101 1
102 28
103 14
104 28
105 1
106 1
107 1
108 1
109 1
110 1
111 28
112 14
113 1
114 1
115 1
116 1
117 28
118 14
119 7
120 1
121 1
122 1
123 1
124 1
125 1
126 28
127 28
128 7
129 28
130 1
131 1
132 1
133 1
134 1
135 28
136 14
137 1
138 1
139 1
140 1
141 1
142 1
143 28
144 14
145 1
146 1
147 1
148 1
149 1
150 1
151 14
152 1
153 1
154 1
155 28
156 14
157 1
158 1
159 1
160 28
161 14
162 7
163 1
164 1
165 1
166 1
167 1
168 1
169 28
170 14
171 7
172 1
173 1
174 28
175 14
176 1
177 1
178 14
179 7
180 1
181 1
182 28
183 7
184 1
185 28
186 1
187 1
188 1
189 1
190 1
191 28
192 14
193 1
194 1
195 28
196 28
197 28
198 7
199 1
200 1
201 1
202 1
203 1
204 28
205 28
206 1
207 1
208 1
209 1
210 28
211 28
212 1
213 1
214 28
215 14
216 28
217 28
218 1
219 1
220 1
221 1
222 1
223 1
224 28
225 7
226 1
227 28
228 28
229 1
230 1
231 1
232 1
233 1
234 28
235 1
236 14
237 1
238 1
239 1
240 14
241 7
242 14
243 7
244 1
245 1
246 1
247 28
248 28
249 1
250 1
251 28
252 1
253 1
254 28
255 7
256 28
257 14
258 7
259 1
260 1
261 1
262 1
263 1
264 14
265 7
266 1
267 28
268 14
269 1
270 1
271 1
272 1
273 14
274 7
275 1
276 1
277 1
278 1
279 1
280 28
281 14
282 1
283 1
284 1
285 1
286 1
287 1
288 14
289 7
290 1
291 1
292 1
293 1
294 1
295 14
296 1
297 1
298 1
299 1
300 1
301 1
302 28
303 28
304 7
305 1
306 1
307 1
308 1
309 1
310 28
311 28
312 14
313 7
314 1
315 1
316 14
317 7
318 1
319 1
320 1
321 1
322 14
323 7
324 1
325 1
326 1
327 1
328 1
329 1
330 28
331 28
332 1
333 1
334 1
335 1
336 1
337 28
338 28
339 28
340 14
341 7
342 1
343 1
344 1
345 1
346 28
347 14
348 7
349 1
350 1
351 28
352 1
353 28
354 28
355 14
356 1
357 1
358 1
359 1
360 1
361 1
362 28
363 14
364 1
365 1
366 1
367 1
368 1
369 28
370 28
371 1
372 28
373 14
374 7
375 1
376 1
377 1
378 1
379 1
380 1
381 28
382 7
383 1
384 1
385 1
386 1
387 1
388 1
389 28
390 28
391 7
392 1
393 1
394 1
395 1
396 28
397 1
398 1
399 1
400 1
401 1
402 1
DEPOT_SECTION
1
-1
EOF