SDVRP instances/custom_instances/p02_23_split0.sol
401 -2 1 3 4 339 340 344 341 342 338 343 81 -11 12 14 13 15 16 337 336 371 372 379 373 378 374 377 376 375 -17 21 23 20 18 19 22 112 110 115 114 111 113 312 314 311 313 310 -41 43 40 42 56 58 59 60 57 61 55 158 154 155 157 156 -47 54 53 48 50 -49 -51 -52 -63 308 303 302 301 304 307 305 306 353 352 -72 71 77 76 73 74 78 75 80 79 197 202 199 283 286 282 281 -82 279 284 280 285 95 100 98 99 96 97 -83 86 88 85 84 87 106 108 107 104 103 109 105 196 195 198 201 200 -102 101 399 401 400 397 398 396 395 134 137 138 136 141 139 135 140 -124 123 122 121 119 117 120 116 118 189 186 185 184 188 187 354 355 356 360 357 358 359 361 363 366 -125 127 126 215 216 221 218 219 222 220 217 -131 128 130 132 129 133 214 213 266 224 225 223 -170 168 171 169 172 255 257 258 256 262 259 260 261 210 212 211 -175 173 176 174 385 382 380 381 383 332 329 334 330 -178 209 46 45 44 253 254 240 239 -179 180 177 149 143 142 146 148 145 144 147 24 28 27 26 25 194 -191 192 193 190 9 5 6 7 10 8 322 323 321 324 325 326 327 328 -208 206 204 205 207 203 36 39 38 37 309 -227 228 231 230 232 226 229 244 243 241 245 242 34 33 29 35 30 31 32 269 267 271 270 268 -233 234 250 252 251 298 299 294 297 296 295 300 246 247 248 249 -238 236 235 237 316 317 318 320 319 315 153 151 150 152 368 370 369 293 292 291 288 287 -265 264 263 393 394 390 389 388 392 272 274 276 273 351 350 -289 290 65 64 62 70 68 66 69 67 165 167 163 166 162 161 160 164 159 183 182 181 277 278 275 391 -335 331 333 384 386 387 90 89 91 94 93 92 346 348 349 345 347 367 362 364 365 0 





OBJ=
2362.302
BEST_KNOWN=
0.000